problem_generation/data/GISP/train/er_n=66_m=1303_p=0.60_SET2_setparam=100.00_alpha=0.50_344.lp
maximize
OBJ:100x0 + 100x1 + 100x2 + 100x3 + 100x4 + 100x5 + 100x6 + 100x7 + 100x8 + 100x9 + 100x10 + 100x11 + 100x12 + 100x13 + 100x14 + 100x15 + 100x16 + 100x17 + 100x18 + 100x19 + 100x20 + 100x21 + 100x22 + 100x23 + 100x24 + 100x25 + 100x26 + 100x27 + 100x28 + 100x29 + 100x30 + 100x31 + 100x32 + 100x33 + 100x34 + 100x35 + 100x36 + 100x37 + 100x38 + 100x39 + 100x40 + 100x41 + 100x42 + 100x43 + 100x44 + 100x45 + 100x46 + 100x47 + 100x48 + 100x49 + 100x50 + 100x51 + 100x52 + 100x53 + 100x54 + 100x55 + 100x56 + 100x57 + 100x58 + 100x59 + 100x60 + 100x61 + 100x62 + 100x63 + 100x64 + 100x65 - y15_21 - y36_53 - y36_62 - y9_63 - y29_41 - y8_18 - y21_37 - y0_14 - y29_50 - y40_50 - y10_27 - y10_36 - y33_38 - y2_32 - y25_43 - y33_56 - y25_52 - y3_15 - y51_64 - y2_59 - y25_61 - y32_60 - y22_37 - y13_65 - y3_42 - y14_42 - y7_12 - y36_48 - y17_44 - y7_21 - y47_57 - y18_30 - y6_43 - y29_45 - y48_58 - y21_41 - y6_52 - y21_50 - y6_61 - y21_59 - y10_22 - y10_31 - y54_65 - y33_42 - y2_36 - y25_38 - y10_49 - y44_51 - y2_45 - y3_10 - y22_23 - y3_19 - y32_55 - y22_32 - y43_55 - y32_64 - y13_60 - y35_60 - y3_37 - y16_65 - y55_56 - y47_52 - y55_65 - y28_48 - y36_61 - y6_29 - y29_40 - y48_53 - y29_49 - y21_45 - y40_58 - y21_54 - y62_64 - y2_22 - y10_35 - y25_33 - y12_63 - y2_40 - y3_5 - y25_42 - y3_23 - y35_55 - y1_62 - y16_60 - y36_38 - y28_43 - y9_39 - y5_59 - y6_24 - y17_61 - y21_49 - y39_48 - y10_21 - y39_57 - y2_17 - y31_53 - y54_55 - y20_62 - y31_62 - y24_32 - y3_9 - y4_63 - y13_41 - y14_18 - y32_54 - y43_54 - y1_48 - y24_50 - y1_57 - y35_59 - y16_55 - y17_20 - y17_29 - y28_29 - y5_36 - y17_38 - y9_34 - y9_43 - y28_56 - y6_19 - y42_58 - y19_65 - y30_65 - y20_39 - y2_12 - y12_62 - y24_27 - y4_58 - y13_45 - y35_45 - y24_54 - y16_50 - y35_63 - y16_59 - y5_22 - y17_24 - y28_33 - y17_42 - y5_49 - y6_14 - y9_47 - y6_23 - y6_32 - y8_51 - y42_53 - y20_34 - y0_65 - y11_65 - y20_43 - y39_56 - y12_39 - y20_61 - y4_44 - y23_57 - y32_35 - y13_31 - y4_62 - y1_38 - y24_40 - y43_53 - y24_49 - y35_49 - y5_8 - y1_56 - y16_54 - y46_55 - y5_26 - y49_60 - y17_37 - y28_37 - y30_46 - y50_61 - y0_51 - y8_64 - y20_29 - y0_60 - y11_60 - y20_38 - y39_51 - y23_34 - y31_47 - y4_30 - y23_52 - y31_65 - y4_48 - y32_39 - y16_22 - y16_31 - y1_42 - y13_44 - y16_49 - y5_12 - y46_50 - y38_46 - y57_59 - y9_19 - y38_55 - y5_30 - y9_28 - y26_62 - y38_64 - y18_58 - y49_64 - y27_36 - y6_13 - y50_56 - y0_37 - y8_50 - y30_50 - y0_46 - y20_24 - y20_33 - y31_33 - y11_64 - y23_29 - y20_42 - y31_42 - y12_38 - y4_34 - y1_10 - y4_43 - y23_56 - y1_19 - y45_53 - y13_30 - y22_60 - y56_62 - y1_37 - y3_65 - y38_41 - y5_16 - y46_54 - y9_14 - y26_57 - y49_59 - y19_36 - y0_32 - y11_32 - y19_45 - y30_54 - y0_50 - y8_63 - y20_28 - y39_41 - y23_24 - y44_65 - y34_39 - y1_14 - y45_48 - y53_61 - y37_44 - y16_21 - y22_55 - y34_57 - y22_64 - y3_60 - y26_34 - y46_49 - y38_45 - y46_58 - y7_39 - y7_48 - y38_63 - y49_63 - y8_22 - y27_35 - y27_44 - y0_27 - y8_40 - y19_40 - y27_53 - y30_40 - y19_49 - y0_45 - y11_45 - y4_6 - y0_54 - y12_19 - y4_15 - y12_28 - y33_60 - y53_56 - y22_50 - y53_65 - y14_46 - y7_25 - y18_25 - y15_38 - y18_34 - y7_43 - y15_56 - y8_17 - y30_35 - y0_31 - y30_44 - y21_63 - y0_40 - y12_14 - y4_10 - y52_59 - y10_53 - y2_58 - y25_60 - y34_38 - y1_13 - y3_32 - y45_47 - y3_41 - y14_41 - y45_56 - y14_50 - y56_65 - y37_61 - y26_33 - y26_42 - y7_38 - y15_51 - y26_51 - y7_47 - y8_12 - y18_56 - y40_53 - y8_30 - y11_26 - y40_62 - y21_58 - y33_41 - y41_63 - y2_44 - y33_59 - y44_59 - y2_53 - y25_55 - y3_27 - y3_36 - y37_38 - y22_49 - y34_51 - y45_51 - y14_45 - y22_58 - y15_19 - y14_63 - y55_64 - y7_24 - y47_60 - y7_33 - y28_65 - y48_52 - y48_61 - y21_44 - y0_21 - y29_57 - y40_57 - y21_53 - y6_64 - y41_49 - y10_43 - y41_58 - y25_41 - y52_58 - y33_54 - y33_63 - y3_22 - y14_22 - y14_31 - y22_44 - y15_23 - y26_32 - y47_64 - y17_60 - y18_37 - y8_11 - y6_41 - y11_16 - y29_52 - y29_61 - y10_29 - y2_25 - y25_36 - y10_47 - y44_49 - y3_8 - y14_17 - y22_39 - y14_35 - y14_44 - y47_50 - y55_63 - y17_46 - y28_46 - y36_59 - y59_61 - y17_55 - y28_64 - y6_27 - y0_2 - y6_36 - y21_43 - y6_54 - y29_56 - y10_15 - y6_63 - y21_61 - y10_33 - y2_29 - y10_51 - y22_25 - y32_57 - y43_57 - y24_53 - y14_30 - y13_62 - y36_45 - y9_37 - y36_63 - y47_63 - y28_59 - y6_22 - y6_31 - y29_33 - y61_65 - y6_49 - y29_51 - y2_15 - y10_28 - y2_24 - y32_34 - y23_65 - y32_43 - y35_48 - y13_57 - y17_18 - y6_8 - y47_58 - y17_54 - y6_26 - y21_24 - y21_33 - y6_44 - y42_65 - y21_42 - y10_14 - y10_32 - y23_51 - y31_64 - y12_60 - y23_60 - y2_37 - y4_65 - y35_43 - y32_56 - y16_39 - y24_52 - y1_59 - y13_61 - y35_61 - y36_44 - y28_40 - y9_36 - y5_47 - y6_12 - y17_49 - y5_56 - y58_59 - y50_55 - y42_51 - y8_58 - y11_63 - y20_41 - y31_41 - y20_50 - y31_50 - y12_46 - y23_46 - y20_59 - y4_42 - y13_29 - y1_54 - y24_56 - y46_53 - y1_63 - y5_24 - y17_26 - y9_22 - y38_58 - y17_35 - y15_65 - y5_42 - y6_16 - y6_25 - y50_59 - y8_62 - y42_64 - y0_58 - y31_36 - y10_13 - y39_49 - y31_45 - y12_41 - y4_37 - y23_50 - y20_63 - y4_64 - y32_46 - y34_65 - y24_42 - y45_65 - y1_49 - y38_44 - y17_21 - y38_53 - y49_53 - y5_28 - y17_30 - y5_37 - y6_20 - y50_54 - y8_48 - y42_50 - y50_63 - y11_44 - y61_63 - y0_62 - y23_27 - y39_44 - y20_40 - y31_40 - y12_36 - y12_54 - y53_55 - y4_50 - y23_63 - y13_37 - y16_33 - y46_52 - y27_29 - y18_60 - y8_25 - y8_34 - y19_34 - y30_34 - y27_56 - y27_65 - y11_48 - y8_61 - y30_61 - y20_35 - y4_18 - y20_44 - y4_27 - y31_44 - y12_49 - y4_45 - y34_46 - y34_55 - y45_55 - y16_28 - y45_64 - y3_58 - y14_58 - y46_47 - y57_65 - y18_55 - y19_20 - y27_33 - y8_29 - y11_25 - y19_38 - y27_51 - y19_47 - y0_52 - y11_52 - y52_53 - y11_61 - y12_26 - y23_26 - y52_62 - y23_44 - y1_7 - y13_18 - y53_54 - y22_48 - y34_50 - y45_59 - y14_53 - y26_36 - y18_41 - y15_54 - y26_54 - y38_56 - y49_56 - y27_28 - y7_59 - y0_20 - y0_29 - y11_29 - y29_65 - y0_47 - y11_47 - y60_61 - y12_21 - y33_53 - y44_62 - y1_2 - y4_35 - y22_34 - y2_65 - y34_54 - y34_63 - y56_63 - y18_27 - y26_40 - y38_42 - y7_36 - y18_36 - y15_49 - y26_49 - y48_55 - y0_15 - y19_28 - y48_64 - y19_37 - y11_33 - y21_65 - y2_51 - y2_60 - y34_40 - y3_34 - y14_34 - y3_43 - y14_43 - y22_56 - y3_61 - y15_26 - y59_60 - y15_35 - y7_31 - y17_63 - y0_1 - y7_49 - y29_46 - y29_55 - y40_55 - y21_51 - y29_64 - y33_43 - y10_50 - y33_52 - y44_52 - y25_48 - y2_55 - y3_20 - y34_35 - y2_64 - y22_42 - y34_44
 Subject to
C1: x0+x1-y0_1 <=1 
C2: x0+x2-y0_2 <=1 
C3: x0+x8 <=1 
C4: x0+x9 <=1 
C5: x0+x11 <=1 
C6: x0+x12 <=1 
C7: x0+x13 <=1 
C8: x0+x14-y0_14 <=1 
C9: x0+x15-y0_15 <=1 
C10: x0+x19 <=1 
C11: x0+x20-y0_20 <=1 
C12: x0+x21-y0_21 <=1 
C13: x0+x26 <=1 
C14: x0+x27-y0_27 <=1 
C15: x0+x28 <=1 
C16: x0+x29-y0_29 <=1 
C17: x0+x31-y0_31 <=1 
C18: x0+x32-y0_32 <=1 
C19: x0+x37-y0_37 <=1 
C20: x0+x38 <=1 
C21: x0+x40-y0_40 <=1 
C22: x0+x42 <=1 
C23: x0+x43 <=1 
C24: x0+x44 <=1 
C25: x0+x45-y0_45 <=1 
C26: x0+x46-y0_46 <=1 
C27: x0+x47-y0_47 <=1 
C28: x0+x49 <=1 
C29: x0+x50-y0_50 <=1 
C30: x0+x51-y0_51 <=1 
C31: x0+x52-y0_52 <=1 
C32: x0+x53 <=1 
C33: x0+x54-y0_54 <=1 
C34: x0+x56 <=1 
C35: x0+x58-y0_58 <=1 
C36: x0+x59 <=1 
C37: x0+x60-y0_60 <=1 
C38: x0+x61 <=1 
C39: x0+x62-y0_62 <=1 
C40: x0+x63 <=1 
C41: x0+x65-y0_65 <=1 
C42: x1+x2-y1_2 <=1 
C43: x1+x3 <=1 
C44: x1+x5 <=1 
C45: x1+x6 <=1 
C46: x1+x7-y1_7 <=1 
C47: x1+x10-y1_10 <=1 
C48: x1+x13-y1_13 <=1 
C49: x1+x14-y1_14 <=1 
C50: x1+x16 <=1 
C51: x1+x17 <=1 
C52: x1+x19-y1_19 <=1 
C53: x1+x20 <=1 
C54: x1+x21 <=1 
C55: x1+x23 <=1 
C56: x1+x24 <=1 
C57: x1+x25 <=1 
C58: x1+x27 <=1 
C59: x1+x31 <=1 
C60: x1+x32 <=1 
C61: x1+x33 <=1 
C62: x1+x36 <=1 
C63: x1+x37-y1_37 <=1 
C64: x1+x38-y1_38 <=1 
C65: x1+x39 <=1 
C66: x1+x42-y1_42 <=1 
C67: x1+x45 <=1 
C68: x1+x47 <=1 
C69: x1+x48-y1_48 <=1 
C70: x1+x49-y1_49 <=1 
C71: x1+x52 <=1 
C72: x1+x54-y1_54 <=1 
C73: x1+x56-y1_56 <=1 
C74: x1+x57-y1_57 <=1 
C75: x1+x59-y1_59 <=1 
C76: x1+x62-y1_62 <=1 
C77: x1+x63-y1_63 <=1 
C78: x1+x64 <=1 
C79: x1+x65 <=1 
C80: x2+x8 <=1 
C81: x2+x9 <=1 
C82: x2+x10 <=1 
C83: x2+x11 <=1 
C84: x2+x12-y2_12 <=1 
C85: x2+x13 <=1 
C86: x2+x15-y2_15 <=1 
C87: x2+x17-y2_17 <=1 
C88: x2+x18 <=1 
C89: x2+x20 <=1 
C90: x2+x22-y2_22 <=1 
C91: x2+x23 <=1 
C92: x2+x24-y2_24 <=1 
C93: x2+x25-y2_25 <=1 
C94: x2+x26 <=1 
C95: x2+x28 <=1 
C96: x2+x29-y2_29 <=1 
C97: x2+x31 <=1 
C98: x2+x32-y2_32 <=1 
C99: x2+x34 <=1 
C100: x2+x36-y2_36 <=1 
C101: x2+x37-y2_37 <=1 
C102: x2+x39 <=1 
C103: x2+x40-y2_40 <=1 
C104: x2+x42 <=1 
C105: x2+x43 <=1 
C106: x2+x44-y2_44 <=1 
C107: x2+x45-y2_45 <=1 
C108: x2+x51-y2_51 <=1 
C109: x2+x52 <=1 
C110: x2+x53-y2_53 <=1 
C111: x2+x55-y2_55 <=1 
C112: x2+x58-y2_58 <=1 
C113: x2+x59-y2_59 <=1 
C114: x2+x60-y2_60 <=1 
C115: x2+x61 <=1 
C116: x2+x63 <=1 
C117: x2+x64-y2_64 <=1 
C118: x2+x65-y2_65 <=1 
C119: x3+x4 <=1 
C120: x3+x5-y3_5 <=1 
C121: x3+x6 <=1 
C122: x3+x8-y3_8 <=1 
C123: x3+x9-y3_9 <=1 
C124: x3+x10-y3_10 <=1 
C125: x3+x11 <=1 
C126: x3+x13 <=1 
C127: x3+x15-y3_15 <=1 
C128: x3+x16 <=1 
C129: x3+x17 <=1 
C130: x3+x19-y3_19 <=1 
C131: x3+x20-y3_20 <=1 
C132: x3+x22-y3_22 <=1 
C133: x3+x23-y3_23 <=1 
C134: x3+x24 <=1 
C135: x3+x25 <=1 
C136: x3+x26 <=1 
C137: x3+x27-y3_27 <=1 
C138: x3+x32-y3_32 <=1 
C139: x3+x33 <=1 
C140: x3+x34-y3_34 <=1 
C141: x3+x35 <=1 
C142: x3+x36-y3_36 <=1 
C143: x3+x37-y3_37 <=1 
C144: x3+x39 <=1 
C145: x3+x41-y3_41 <=1 
C146: x3+x42-y3_42 <=1 
C147: x3+x43-y3_43 <=1 
C148: x3+x45 <=1 
C149: x3+x46 <=1 
C150: x3+x48 <=1 
C151: x3+x51 <=1 
C152: x3+x52 <=1 
C153: x3+x53 <=1 
C154: x3+x54 <=1 
C155: x3+x56 <=1 
C156: x3+x57 <=1 
C157: x3+x58-y3_58 <=1 
C158: x3+x59 <=1 
C159: x3+x60-y3_60 <=1 
C160: x3+x61-y3_61 <=1 
C161: x3+x62 <=1 
C162: x3+x64 <=1 
C163: x3+x65-y3_65 <=1 
C164: x4+x5 <=1 
C165: x4+x6-y4_6 <=1 
C166: x4+x9 <=1 
C167: x4+x10-y4_10 <=1 
C168: x4+x12 <=1 
C169: x4+x13 <=1 
C170: x4+x14 <=1 
C171: x4+x15-y4_15 <=1 
C172: x4+x16 <=1 
C173: x4+x17 <=1 
C174: x4+x18-y4_18 <=1 
C175: x4+x23 <=1 
C176: x4+x25 <=1 
C177: x4+x26 <=1 
C178: x4+x27-y4_27 <=1 
C179: x4+x30-y4_30 <=1 
C180: x4+x34-y4_34 <=1 
C181: x4+x35-y4_35 <=1 
C182: x4+x37-y4_37 <=1 
C183: x4+x38 <=1 
C184: x4+x39 <=1 
C185: x4+x42-y4_42 <=1 
C186: x4+x43-y4_43 <=1 
C187: x4+x44-y4_44 <=1 
C188: x4+x45-y4_45 <=1 
C189: x4+x46 <=1 
C190: x4+x48-y4_48 <=1 
C191: x4+x50-y4_50 <=1 
C192: x4+x51 <=1 
C193: x4+x52 <=1 
C194: x4+x53 <=1 
C195: x4+x55 <=1 
C196: x4+x57 <=1 
C197: x4+x58-y4_58 <=1 
C198: x4+x59 <=1 
C199: x4+x60 <=1 
C200: x4+x62-y4_62 <=1 
C201: x4+x63-y4_63 <=1 
C202: x4+x64-y4_64 <=1 
C203: x4+x65-y4_65 <=1 
C204: x5+x8-y5_8 <=1 
C205: x5+x11 <=1 
C206: x5+x12-y5_12 <=1 
C207: x5+x13 <=1 
C208: x5+x14 <=1 
C209: x5+x15 <=1 
C210: x5+x16-y5_16 <=1 
C211: x5+x18 <=1 
C212: x5+x22-y5_22 <=1 
C213: x5+x23 <=1 
C214: x5+x24-y5_24 <=1 
C215: x5+x25 <=1 
C216: x5+x26-y5_26 <=1 
C217: x5+x28-y5_28 <=1 
C218: x5+x29 <=1 
C219: x5+x30-y5_30 <=1 
C220: x5+x35 <=1 
C221: x5+x36-y5_36 <=1 
C222: x5+x37-y5_37 <=1 
C223: x5+x38 <=1 
C224: x5+x41 <=1 
C225: x5+x42-y5_42 <=1 
C226: x5+x45 <=1 
C227: x5+x47-y5_47 <=1 
C228: x5+x48 <=1 
C229: x5+x49-y5_49 <=1 
C230: x5+x50 <=1 
C231: x5+x51 <=1 
C232: x5+x52 <=1 
C233: x5+x53 <=1 
C234: x5+x54 <=1 
C235: x5+x56-y5_56 <=1 
C236: x5+x57 <=1 
C237: x5+x58 <=1 
C238: x5+x59-y5_59 <=1 
C239: x5+x63 <=1 
C240: x5+x64 <=1 
C241: x6+x7 <=1 
C242: x6+x8-y6_8 <=1 
C243: x6+x9 <=1 
C244: x6+x10 <=1 
C245: x6+x12-y6_12 <=1 
C246: x6+x13-y6_13 <=1 
C247: x6+x14-y6_14 <=1 
C248: x6+x16-y6_16 <=1 
C249: x6+x19-y6_19 <=1 
C250: x6+x20-y6_20 <=1 
C251: x6+x21 <=1 
C252: x6+x22-y6_22 <=1 
C253: x6+x23-y6_23 <=1 
C254: x6+x24-y6_24 <=1 
C255: x6+x25-y6_25 <=1 
C256: x6+x26-y6_26 <=1 
C257: x6+x27-y6_27 <=1 
C258: x6+x29-y6_29 <=1 
C259: x6+x30 <=1 
C260: x6+x31-y6_31 <=1 
C261: x6+x32-y6_32 <=1 
C262: x6+x36-y6_36 <=1 
C263: x6+x39 <=1 
C264: x6+x40 <=1 
C265: x6+x41-y6_41 <=1 
C266: x6+x42 <=1 
C267: x6+x43-y6_43 <=1 
C268: x6+x44-y6_44 <=1 
C269: x6+x45 <=1 
C270: x6+x46 <=1 
C271: x6+x48 <=1 
C272: x6+x49-y6_49 <=1 
C273: x6+x50 <=1 
C274: x6+x52-y6_52 <=1 
C275: x6+x54-y6_54 <=1 
C276: x6+x55 <=1 
C277: x6+x58 <=1 
C278: x6+x61-y6_61 <=1 
C279: x6+x62 <=1 
C280: x6+x63-y6_63 <=1 
C281: x6+x64-y6_64 <=1 
C282: x7+x10 <=1 
C283: x7+x11 <=1 
C284: x7+x12-y7_12 <=1 
C285: x7+x14 <=1 
C286: x7+x17 <=1 
C287: x7+x21-y7_21 <=1 
C288: x7+x22 <=1 
C289: x7+x24-y7_24 <=1 
C290: x7+x25-y7_25 <=1 
C291: x7+x26 <=1 
C292: x7+x29 <=1 
C293: x7+x30 <=1 
C294: x7+x31-y7_31 <=1 
C295: x7+x32 <=1 
C296: x7+x33-y7_33 <=1 
C297: x7+x36-y7_36 <=1 
C298: x7+x38-y7_38 <=1 
C299: x7+x39-y7_39 <=1 
C300: x7+x40 <=1 
C301: x7+x42 <=1 
C302: x7+x43-y7_43 <=1 
C303: x7+x46 <=1 
C304: x7+x47-y7_47 <=1 
C305: x7+x48-y7_48 <=1 
C306: x7+x49-y7_49 <=1 
C307: x7+x52 <=1 
C308: x7+x53 <=1 
C309: x7+x55 <=1 
C310: x7+x56 <=1 
C311: x7+x58 <=1 
C312: x7+x59-y7_59 <=1 
C313: x7+x60 <=1 
C314: x7+x61 <=1 
C315: x8+x11-y8_11 <=1 
C316: x8+x12-y8_12 <=1 
C317: x8+x13 <=1 
C318: x8+x14 <=1 
C319: x8+x15 <=1 
C320: x8+x16 <=1 
C321: x8+x17-y8_17 <=1 
C322: x8+x18-y8_18 <=1 
C323: x8+x21 <=1 
C324: x8+x22-y8_22 <=1 
C325: x8+x25-y8_25 <=1 
C326: x8+x29-y8_29 <=1 
C327: x8+x30-y8_30 <=1 
C328: x8+x32 <=1 
C329: x8+x34-y8_34 <=1 
C330: x8+x35 <=1 
C331: x8+x36 <=1 
C332: x8+x38 <=1 
C333: x8+x39 <=1 
C334: x8+x40-y8_40 <=1 
C335: x8+x46 <=1 
C336: x8+x48-y8_48 <=1 
C337: x8+x50-y8_50 <=1 
C338: x8+x51-y8_51 <=1 
C339: x8+x52 <=1 
C340: x8+x54 <=1 
C341: x8+x56 <=1 
C342: x8+x58-y8_58 <=1 
C343: x8+x59 <=1 
C344: x8+x60 <=1 
C345: x8+x61-y8_61 <=1 
C346: x8+x62-y8_62 <=1 
C347: x8+x63-y8_63 <=1 
C348: x8+x64-y8_64 <=1 
C349: x9+x10 <=1 
C350: x9+x11 <=1 
C351: x9+x14-y9_14 <=1 
C352: x9+x19-y9_19 <=1 
C353: x9+x20 <=1 
C354: x9+x22-y9_22 <=1 
C355: x9+x25 <=1 
C356: x9+x26 <=1 
C357: x9+x27 <=1 
C358: x9+x28-y9_28 <=1 
C359: x9+x30 <=1 
C360: x9+x34-y9_34 <=1 
C361: x9+x36-y9_36 <=1 
C362: x9+x37-y9_37 <=1 
C363: x9+x38 <=1 
C364: x9+x39-y9_39 <=1 
C365: x9+x42 <=1 
C366: x9+x43-y9_43 <=1 
C367: x9+x44 <=1 
C368: x9+x45 <=1 
C369: x9+x46 <=1 
C370: x9+x47-y9_47 <=1 
C371: x9+x56 <=1 
C372: x9+x57 <=1 
C373: x9+x61 <=1 
C374: x9+x62 <=1 
C375: x9+x63-y9_63 <=1 
C376: x9+x64 <=1 
C377: x9+x65 <=1 
C378: x10+x13-y10_13 <=1 
C379: x10+x14-y10_14 <=1 
C380: x10+x15-y10_15 <=1 
C381: x10+x16 <=1 
C382: x10+x19 <=1 
C383: x10+x21-y10_21 <=1 
C384: x10+x22-y10_22 <=1 
C385: x10+x23 <=1 
C386: x10+x27-y10_27 <=1 
C387: x10+x28-y10_28 <=1 
C388: x10+x29-y10_29 <=1 
C389: x10+x31-y10_31 <=1 
C390: x10+x32-y10_32 <=1 
C391: x10+x33-y10_33 <=1 
C392: x10+x34 <=1 
C393: x10+x35-y10_35 <=1 
C394: x10+x36-y10_36 <=1 
C395: x10+x39 <=1 
C396: x10+x43-y10_43 <=1 
C397: x10+x45 <=1 
C398: x10+x47-y10_47 <=1 
C399: x10+x48 <=1 
C400: x10+x49-y10_49 <=1 
C401: x10+x50-y10_50 <=1 
C402: x10+x51-y10_51 <=1 
C403: x10+x52 <=1 
C404: x10+x53-y10_53 <=1 
C405: x10+x54 <=1 
C406: x10+x55 <=1 
C407: x10+x61 <=1 
C408: x10+x65 <=1 
C409: x11+x12 <=1 
C410: x11+x16-y11_16 <=1 
C411: x11+x19 <=1 
C412: x11+x20 <=1 
C413: x11+x22 <=1 
C414: x11+x23 <=1 
C415: x11+x25-y11_25 <=1 
C416: x11+x26-y11_26 <=1 
C417: x11+x27 <=1 
C418: x11+x29-y11_29 <=1 
C419: x11+x32-y11_32 <=1 
C420: x11+x33-y11_33 <=1 
C421: x11+x37 <=1 
C422: x11+x43 <=1 
C423: x11+x44-y11_44 <=1 
C424: x11+x45-y11_45 <=1 
C425: x11+x47-y11_47 <=1 
C426: x11+x48-y11_48 <=1 
C427: x11+x51 <=1 
C428: x11+x52-y11_52 <=1 
C429: x11+x54 <=1 
C430: x11+x58 <=1 
C431: x11+x60-y11_60 <=1 
C432: x11+x61-y11_61 <=1 
C433: x11+x62 <=1 
C434: x11+x63-y11_63 <=1 
C435: x11+x64-y11_64 <=1 
C436: x11+x65-y11_65 <=1 
C437: x12+x14-y12_14 <=1 
C438: x12+x16 <=1 
C439: x12+x17 <=1 
C440: x12+x18 <=1 
C441: x12+x19-y12_19 <=1 
C442: x12+x20 <=1 
C443: x12+x21-y12_21 <=1 
C444: x12+x23 <=1 
C445: x12+x25 <=1 
C446: x12+x26-y12_26 <=1 
C447: x12+x27 <=1 
C448: x12+x28-y12_28 <=1 
C449: x12+x29 <=1 
C450: x12+x31 <=1 
C451: x12+x32 <=1 
C452: x12+x35 <=1 
C453: x12+x36-y12_36 <=1 
C454: x12+x37 <=1 
C455: x12+x38-y12_38 <=1 
C456: x12+x39-y12_39 <=1 
C457: x12+x41-y12_41 <=1 
C458: x12+x42 <=1 
C459: x12+x46-y12_46 <=1 
C460: x12+x49-y12_49 <=1 
C461: x12+x50 <=1 
C462: x12+x52 <=1 
C463: x12+x54-y12_54 <=1 
C464: x12+x55 <=1 
C465: x12+x57 <=1 
C466: x12+x58 <=1 
C467: x12+x59 <=1 
C468: x12+x60-y12_60 <=1 
C469: x12+x61 <=1 
C470: x12+x62-y12_62 <=1 
C471: x12+x63-y12_63 <=1 
C472: x13+x15 <=1 
C473: x13+x16 <=1 
C474: x13+x17 <=1 
C475: x13+x18-y13_18 <=1 
C476: x13+x19 <=1 
C477: x13+x22 <=1 
C478: x13+x23 <=1 
C479: x13+x24 <=1 
C480: x13+x26 <=1 
C481: x13+x29-y13_29 <=1 
C482: x13+x30-y13_30 <=1 
C483: x13+x31-y13_31 <=1 
C484: x13+x32 <=1 
C485: x13+x34 <=1 
C486: x13+x35 <=1 
C487: x13+x37-y13_37 <=1 
C488: x13+x40 <=1 
C489: x13+x41-y13_41 <=1 
C490: x13+x42 <=1 
C491: x13+x43 <=1 
C492: x13+x44-y13_44 <=1 
C493: x13+x45-y13_45 <=1 
C494: x13+x50 <=1 
C495: x13+x54 <=1 
C496: x13+x57-y13_57 <=1 
C497: x13+x60-y13_60 <=1 
C498: x13+x61-y13_61 <=1 
C499: x13+x62-y13_62 <=1 
C500: x13+x65-y13_65 <=1 
C501: x14+x16 <=1 
C502: x14+x17-y14_17 <=1 
C503: x14+x18-y14_18 <=1 
C504: x14+x22-y14_22 <=1 
C505: x14+x26 <=1 
C506: x14+x28 <=1 
C507: x14+x29 <=1 
C508: x14+x30-y14_30 <=1 
C509: x14+x31-y14_31 <=1 
C510: x14+x34-y14_34 <=1 
C511: x14+x35-y14_35 <=1 
C512: x14+x41-y14_41 <=1 
C513: x14+x42-y14_42 <=1 
C514: x14+x43-y14_43 <=1 
C515: x14+x44-y14_44 <=1 
C516: x14+x45-y14_45 <=1 
C517: x14+x46-y14_46 <=1 
C518: x14+x48 <=1 
C519: x14+x49 <=1 
C520: x14+x50-y14_50 <=1 
C521: x14+x51 <=1 
C522: x14+x53-y14_53 <=1 
C523: x14+x54 <=1 
C524: x14+x56 <=1 
C525: x14+x58-y14_58 <=1 
C526: x14+x60 <=1 
C527: x14+x63-y14_63 <=1 
C528: x15+x16 <=1 
C529: x15+x18 <=1 
C530: x15+x19-y15_19 <=1 
C531: x15+x21-y15_21 <=1 
C532: x15+x22 <=1 
C533: x15+x23-y15_23 <=1 
C534: x15+x24 <=1 
C535: x15+x26-y15_26 <=1 
C536: x15+x27 <=1 
C537: x15+x31 <=1 
C538: x15+x32 <=1 
C539: x15+x33 <=1 
C540: x15+x35-y15_35 <=1 
C541: x15+x38-y15_38 <=1 
C542: x15+x40 <=1 
C543: x15+x42 <=1 
C544: x15+x43 <=1 
C545: x15+x44 <=1 
C546: x15+x45 <=1 
C547: x15+x46 <=1 
C548: x15+x47 <=1 
C549: x15+x48 <=1 
C550: x15+x49-y15_49 <=1 
C551: x15+x50 <=1 
C552: x15+x51-y15_51 <=1 
C553: x15+x54-y15_54 <=1 
C554: x15+x56-y15_56 <=1 
C555: x15+x58 <=1 
C556: x15+x60 <=1 
C557: x15+x61 <=1 
C558: x15+x62 <=1 
C559: x15+x63 <=1 
C560: x15+x65-y15_65 <=1 
C561: x16+x17 <=1 
C562: x16+x18 <=1 
C563: x16+x19 <=1 
C564: x16+x20 <=1 
C565: x16+x21-y16_21 <=1 
C566: x16+x22-y16_22 <=1 
C567: x16+x23 <=1 
C568: x16+x24 <=1 
C569: x16+x25 <=1 
C570: x16+x26 <=1 
C571: x16+x27 <=1 
C572: x16+x28-y16_28 <=1 
C573: x16+x30 <=1 
C574: x16+x31-y16_31 <=1 
C575: x16+x32 <=1 
C576: x16+x33-y16_33 <=1 
C577: x16+x34 <=1 
C578: x16+x36 <=1 
C579: x16+x39-y16_39 <=1 
C580: x16+x40 <=1 
C581: x16+x43 <=1 
C582: x16+x45 <=1 
C583: x16+x46 <=1 
C584: x16+x47 <=1 
C585: x16+x48 <=1 
C586: x16+x49-y16_49 <=1 
C587: x16+x50-y16_50 <=1 
C588: x16+x52 <=1 
C589: x16+x53 <=1 
C590: x16+x54-y16_54 <=1 
C591: x16+x55-y16_55 <=1 
C592: x16+x57 <=1 
C593: x16+x59-y16_59 <=1 
C594: x16+x60-y16_60 <=1 
C595: x16+x61 <=1 
C596: x16+x64 <=1 
C597: x16+x65-y16_65 <=1 
C598: x17+x18-y17_18 <=1 
C599: x17+x20-y17_20 <=1 
C600: x17+x21-y17_21 <=1 
C601: x17+x22 <=1 
C602: x17+x24-y17_24 <=1 
C603: x17+x25 <=1 
C604: x17+x26-y17_26 <=1 
C605: x17+x28 <=1 
C606: x17+x29-y17_29 <=1 
C607: x17+x30-y17_30 <=1 
C608: x17+x31 <=1 
C609: x17+x34 <=1 
C610: x17+x35-y17_35 <=1 
C611: x17+x37-y17_37 <=1 
C612: x17+x38-y17_38 <=1 
C613: x17+x39 <=1 
C614: x17+x41 <=1 
C615: x17+x42-y17_42 <=1 
C616: x17+x44-y17_44 <=1 
C617: x17+x46-y17_46 <=1 
C618: x17+x48 <=1 
C619: x17+x49-y17_49 <=1 
C620: x17+x53 <=1 
C621: x17+x54-y17_54 <=1 
C622: x17+x55-y17_55 <=1 
C623: x17+x57 <=1 
C624: x17+x58 <=1 
C625: x17+x59 <=1 
C626: x17+x60-y17_60 <=1 
C627: x17+x61-y17_61 <=1 
C628: x17+x63-y17_63 <=1 
C629: x18+x21 <=1 
C630: x18+x25-y18_25 <=1 
C631: x18+x27-y18_27 <=1 
C632: x18+x28 <=1 
C633: x18+x30-y18_30 <=1 
C634: x18+x33 <=1 
C635: x18+x34-y18_34 <=1 
C636: x18+x36-y18_36 <=1 
C637: x18+x37-y18_37 <=1 
C638: x18+x38 <=1 
C639: x18+x39 <=1 
C640: x18+x40 <=1 
C641: x18+x41-y18_41 <=1 
C642: x18+x44 <=1 
C643: x18+x46 <=1 
C644: x18+x47 <=1 
C645: x18+x48 <=1 
C646: x18+x50 <=1 
C647: x18+x53 <=1 
C648: x18+x54 <=1 
C649: x18+x55-y18_55 <=1 
C650: x18+x56-y18_56 <=1 
C651: x18+x57 <=1 
C652: x18+x58-y18_58 <=1 
C653: x18+x60-y18_60 <=1 
C654: x18+x62 <=1 
C655: x18+x63 <=1 
C656: x18+x64 <=1 
C657: x18+x65 <=1 
C658: x19+x20-y19_20 <=1 
C659: x19+x21 <=1 
C660: x19+x22 <=1 
C661: x19+x24 <=1 
C662: x19+x25 <=1 
C663: x19+x26 <=1 
C664: x19+x28-y19_28 <=1 
C665: x19+x29 <=1 
C666: x19+x30 <=1 
C667: x19+x31 <=1 
C668: x19+x32 <=1 
C669: x19+x34-y19_34 <=1 
C670: x19+x35 <=1 
C671: x19+x36-y19_36 <=1 
C672: x19+x37-y19_37 <=1 
C673: x19+x38-y19_38 <=1 
C674: x19+x40-y19_40 <=1 
C675: x19+x42 <=1 
C676: x19+x43 <=1 
C677: x19+x45-y19_45 <=1 
C678: x19+x47-y19_47 <=1 
C679: x19+x49-y19_49 <=1 
C680: x19+x54 <=1 
C681: x19+x58 <=1 
C682: x19+x62 <=1 
C683: x19+x65-y19_65 <=1 
C684: x20+x22 <=1 
C685: x20+x23 <=1 
C686: x20+x24-y20_24 <=1 
C687: x20+x26 <=1 
C688: x20+x27 <=1 
C689: x20+x28-y20_28 <=1 
C690: x20+x29-y20_29 <=1 
C691: x20+x31 <=1 
C692: x20+x33-y20_33 <=1 
C693: x20+x34-y20_34 <=1 
C694: x20+x35-y20_35 <=1 
C695: x20+x37 <=1 
C696: x20+x38-y20_38 <=1 
C697: x20+x39-y20_39 <=1 
C698: x20+x40-y20_40 <=1 
C699: x20+x41-y20_41 <=1 
C700: x20+x42-y20_42 <=1 
C701: x20+x43-y20_43 <=1 
C702: x20+x44-y20_44 <=1 
C703: x20+x45 <=1 
C704: x20+x50-y20_50 <=1 
C705: x20+x53 <=1 
C706: x20+x55 <=1 
C707: x20+x59-y20_59 <=1 
C708: x20+x60 <=1 
C709: x20+x61-y20_61 <=1 
C710: x20+x62-y20_62 <=1 
C711: x20+x63-y20_63 <=1 
C712: x20+x64 <=1 
C713: x21+x22 <=1 
C714: x21+x23 <=1 
C715: x21+x24-y21_24 <=1 
C716: x21+x26 <=1 
C717: x21+x27 <=1 
C718: x21+x28 <=1 
C719: x21+x31 <=1 
C720: x21+x32 <=1 
C721: x21+x33-y21_33 <=1 
C722: x21+x34 <=1 
C723: x21+x35 <=1 
C724: x21+x37-y21_37 <=1 
C725: x21+x39 <=1 
C726: x21+x40 <=1 
C727: x21+x41-y21_41 <=1 
C728: x21+x42-y21_42 <=1 
C729: x21+x43-y21_43 <=1 
C730: x21+x44-y21_44 <=1 
C731: x21+x45-y21_45 <=1 
C732: x21+x46 <=1 
C733: x21+x47 <=1 
C734: x21+x48 <=1 
C735: x21+x49-y21_49 <=1 
C736: x21+x50-y21_50 <=1 
C737: x21+x51-y21_51 <=1 
C738: x21+x53-y21_53 <=1 
C739: x21+x54-y21_54 <=1 
C740: x21+x57 <=1 
C741: x21+x58-y21_58 <=1 
C742: x21+x59-y21_59 <=1 
C743: x21+x61-y21_61 <=1 
C744: x21+x63-y21_63 <=1 
C745: x21+x65-y21_65 <=1 
C746: x22+x23-y22_23 <=1 
C747: x22+x25-y22_25 <=1 
C748: x22+x27 <=1 
C749: x22+x32-y22_32 <=1 
C750: x22+x34-y22_34 <=1 
C751: x22+x36 <=1 
C752: x22+x37-y22_37 <=1 
C753: x22+x39-y22_39 <=1 
C754: x22+x40 <=1 
C755: x22+x41 <=1 
C756: x22+x42-y22_42 <=1 
C757: x22+x44-y22_44 <=1 
C758: x22+x45 <=1 
C759: x22+x47 <=1 
C760: x22+x48-y22_48 <=1 
C761: x22+x49-y22_49 <=1 
C762: x22+x50-y22_50 <=1 
C763: x22+x51 <=1 
C764: x22+x54 <=1 
C765: x22+x55-y22_55 <=1 
C766: x22+x56-y22_56 <=1 
C767: x22+x58-y22_58 <=1 
C768: x22+x59 <=1 
C769: x22+x60-y22_60 <=1 
C770: x22+x63 <=1 
C771: x22+x64-y22_64 <=1 
C772: x23+x24-y23_24 <=1 
C773: x23+x25 <=1 
C774: x23+x26-y23_26 <=1 
C775: x23+x27-y23_27 <=1 
C776: x23+x28 <=1 
C777: x23+x29-y23_29 <=1 
C778: x23+x33 <=1 
C779: x23+x34-y23_34 <=1 
C780: x23+x35 <=1 
C781: x23+x36 <=1 
C782: x23+x37 <=1 
C783: x23+x43 <=1 
C784: x23+x44-y23_44 <=1 
C785: x23+x45 <=1 
C786: x23+x46-y23_46 <=1 
C787: x23+x49 <=1 
C788: x23+x50-y23_50 <=1 
C789: x23+x51-y23_51 <=1 
C790: x23+x52-y23_52 <=1 
C791: x23+x56-y23_56 <=1 
C792: x23+x57-y23_57 <=1 
C793: x23+x58 <=1 
C794: x23+x59 <=1 
C795: x23+x60-y23_60 <=1 
C796: x23+x61 <=1 
C797: x23+x63-y23_63 <=1 
C798: x23+x65-y23_65 <=1 
C799: x24+x25 <=1 
C800: x24+x27-y24_27 <=1 
C801: x24+x28 <=1 
C802: x24+x31 <=1 
C803: x24+x32-y24_32 <=1 
C804: x24+x34 <=1 
C805: x24+x35 <=1 
C806: x24+x40-y24_40 <=1 
C807: x24+x41 <=1 
C808: x24+x42-y24_42 <=1 
C809: x24+x44 <=1 
C810: x24+x49-y24_49 <=1 
C811: x24+x50-y24_50 <=1 
C812: x24+x51 <=1 
C813: x24+x52-y24_52 <=1 
C814: x24+x53-y24_53 <=1 
C815: x24+x54-y24_54 <=1 
C816: x24+x56-y24_56 <=1 
C817: x24+x57 <=1 
C818: x24+x59 <=1 
C819: x24+x62 <=1 
C820: x25+x26 <=1 
C821: x25+x29 <=1 
C822: x25+x30 <=1 
C823: x25+x33-y25_33 <=1 
C824: x25+x35 <=1 
C825: x25+x36-y25_36 <=1 
C826: x25+x38-y25_38 <=1 
C827: x25+x40 <=1 
C828: x25+x41-y25_41 <=1 
C829: x25+x42-y25_42 <=1 
C830: x25+x43-y25_43 <=1 
C831: x25+x48-y25_48 <=1 
C832: x25+x49 <=1 
C833: x25+x50 <=1 
C834: x25+x52-y25_52 <=1 
C835: x25+x53 <=1 
C836: x25+x55-y25_55 <=1 
C837: x25+x57 <=1 
C838: x25+x60-y25_60 <=1 
C839: x25+x61-y25_61 <=1 
C840: x25+x63 <=1 
C841: x25+x65 <=1 
C842: x26+x30 <=1 
C843: x26+x31 <=1 
C844: x26+x32-y26_32 <=1 
C845: x26+x33-y26_33 <=1 
C846: x26+x34-y26_34 <=1 
C847: x26+x35 <=1 
C848: x26+x36-y26_36 <=1 
C849: x26+x38 <=1 
C850: x26+x40-y26_40 <=1 
C851: x26+x42-y26_42 <=1 
C852: x26+x43 <=1 
C853: x26+x49-y26_49 <=1 
C854: x26+x50 <=1 
C855: x26+x51-y26_51 <=1 
C856: x26+x53 <=1 
C857: x26+x54-y26_54 <=1 
C858: x26+x55 <=1 
C859: x26+x57-y26_57 <=1 
C860: x26+x58 <=1 
C861: x26+x62-y26_62 <=1 
C862: x26+x65 <=1 
C863: x27+x28-y27_28 <=1 
C864: x27+x29-y27_29 <=1 
C865: x27+x30 <=1 
C866: x27+x33-y27_33 <=1 
C867: x27+x35-y27_35 <=1 
C868: x27+x36-y27_36 <=1 
C869: x27+x37 <=1 
C870: x27+x41 <=1 
C871: x27+x42 <=1 
C872: x27+x43 <=1 
C873: x27+x44-y27_44 <=1 
C874: x27+x47 <=1 
C875: x27+x51-y27_51 <=1 
C876: x27+x52 <=1 
C877: x27+x53-y27_53 <=1 
C878: x27+x56-y27_56 <=1 
C879: x27+x63 <=1 
C880: x27+x64 <=1 
C881: x27+x65-y27_65 <=1 
C882: x28+x29-y28_29 <=1 
C883: x28+x30 <=1 
C884: x28+x31 <=1 
C885: x28+x33-y28_33 <=1 
C886: x28+x34 <=1 
C887: x28+x37-y28_37 <=1 
C888: x28+x38 <=1 
C889: x28+x39 <=1 
C890: x28+x40-y28_40 <=1 
C891: x28+x43-y28_43 <=1 
C892: x28+x46-y28_46 <=1 
C893: x28+x48-y28_48 <=1 
C894: x28+x49 <=1 
C895: x28+x51 <=1 
C896: x28+x53 <=1 
C897: x28+x54 <=1 
C898: x28+x56-y28_56 <=1 
C899: x28+x57 <=1 
C900: x28+x58 <=1 
C901: x28+x59-y28_59 <=1 
C902: x28+x63 <=1 
C903: x28+x64-y28_64 <=1 
C904: x28+x65-y28_65 <=1 
C905: x29+x32 <=1 
C906: x29+x33-y29_33 <=1 
C907: x29+x35 <=1 
C908: x29+x36 <=1 
C909: x29+x37 <=1 
C910: x29+x39 <=1 
C911: x29+x40-y29_40 <=1 
C912: x29+x41-y29_41 <=1 
C913: x29+x42 <=1 
C914: x29+x44 <=1 
C915: x29+x45-y29_45 <=1 
C916: x29+x46-y29_46 <=1 
C917: x29+x48 <=1 
C918: x29+x49-y29_49 <=1 
C919: x29+x50-y29_50 <=1 
C920: x29+x51-y29_51 <=1 
C921: x29+x52-y29_52 <=1 
C922: x29+x55-y29_55 <=1 
C923: x29+x56-y29_56 <=1 
C924: x29+x57-y29_57 <=1 
C925: x29+x58 <=1 
C926: x29+x59 <=1 
C927: x29+x60 <=1 
C928: x29+x61-y29_61 <=1 
C929: x29+x62 <=1 
C930: x29+x63 <=1 
C931: x29+x64-y29_64 <=1 
C932: x29+x65-y29_65 <=1 
C933: x30+x33 <=1 
C934: x30+x34-y30_34 <=1 
C935: x30+x35-y30_35 <=1 
C936: x30+x37 <=1 
C937: x30+x38 <=1 
C938: x30+x40-y30_40 <=1 
C939: x30+x41 <=1 
C940: x30+x44-y30_44 <=1 
C941: x30+x46-y30_46 <=1 
C942: x30+x50-y30_50 <=1 
C943: x30+x51 <=1 
C944: x30+x54-y30_54 <=1 
C945: x30+x55 <=1 
C946: x30+x56 <=1 
C947: x30+x59 <=1 
C948: x30+x61-y30_61 <=1 
C949: x30+x64 <=1 
C950: x30+x65-y30_65 <=1 
C951: x31+x33-y31_33 <=1 
C952: x31+x34 <=1 
C953: x31+x35 <=1 
C954: x31+x36-y31_36 <=1 
C955: x31+x39 <=1 
C956: x31+x40-y31_40 <=1 
C957: x31+x41-y31_41 <=1 
C958: x31+x42-y31_42 <=1 
C959: x31+x43 <=1 
C960: x31+x44-y31_44 <=1 
C961: x31+x45-y31_45 <=1 
C962: x31+x46 <=1 
C963: x31+x47-y31_47 <=1 
C964: x31+x50-y31_50 <=1 
C965: x31+x51 <=1 
C966: x31+x53-y31_53 <=1 
C967: x31+x54 <=1 
C968: x31+x58 <=1 
C969: x31+x59 <=1 
C970: x31+x62-y31_62 <=1 
C971: x31+x63 <=1 
C972: x31+x64-y31_64 <=1 
C973: x31+x65-y31_65 <=1 
C974: x32+x34-y32_34 <=1 
C975: x32+x35-y32_35 <=1 
C976: x32+x39-y32_39 <=1 
C977: x32+x40 <=1 
C978: x32+x42 <=1 
C979: x32+x43-y32_43 <=1 
C980: x32+x46-y32_46 <=1 
C981: x32+x48 <=1 
C982: x32+x51 <=1 
C983: x32+x54-y32_54 <=1 
C984: x32+x55-y32_55 <=1 
C985: x32+x56-y32_56 <=1 
C986: x32+x57-y32_57 <=1 
C987: x32+x60-y32_60 <=1 
C988: x32+x63 <=1 
C989: x32+x64-y32_64 <=1 
C990: x33+x36 <=1 
C991: x33+x37 <=1 
C992: x33+x38-y33_38 <=1 
C993: x33+x41-y33_41 <=1 
C994: x33+x42-y33_42 <=1 
C995: x33+x43-y33_43 <=1 
C996: x33+x44 <=1 
C997: x33+x46 <=1 
C998: x33+x47 <=1 
C999: x33+x48 <=1 
C1000: x33+x50 <=1 
C1001: x33+x52-y33_52 <=1 
C1002: x33+x53-y33_53 <=1 
C1003: x33+x54-y33_54 <=1 
C1004: x33+x56-y33_56 <=1 
C1005: x33+x57 <=1 
C1006: x33+x58 <=1 
C1007: x33+x59-y33_59 <=1 
C1008: x33+x60-y33_60 <=1 
C1009: x33+x62 <=1 
C1010: x33+x63-y33_63 <=1 
C1011: x33+x64 <=1 
C1012: x33+x65 <=1 
C1013: x34+x35-y34_35 <=1 
C1014: x34+x37 <=1 
C1015: x34+x38-y34_38 <=1 
C1016: x34+x39-y34_39 <=1 
C1017: x34+x40-y34_40 <=1 
C1018: x34+x43 <=1 
C1019: x34+x44-y34_44 <=1 
C1020: x34+x46-y34_46 <=1 
C1021: x34+x47 <=1 
C1022: x34+x50-y34_50 <=1 
C1023: x34+x51-y34_51 <=1 
C1024: x34+x54-y34_54 <=1 
C1025: x34+x55-y34_55 <=1 
C1026: x34+x56 <=1 
C1027: x34+x57-y34_57 <=1 
C1028: x34+x58 <=1 
C1029: x34+x61 <=1 
C1030: x34+x63-y34_63 <=1 
C1031: x34+x65-y34_65 <=1 
C1032: x35+x40 <=1 
C1033: x35+x41 <=1 
C1034: x35+x42 <=1 
C1035: x35+x43-y35_43 <=1 
C1036: x35+x44 <=1 
C1037: x35+x45-y35_45 <=1 
C1038: x35+x48-y35_48 <=1 
C1039: x35+x49-y35_49 <=1 
C1040: x35+x51 <=1 
C1041: x35+x53 <=1 
C1042: x35+x54 <=1 
C1043: x35+x55-y35_55 <=1 
C1044: x35+x57 <=1 
C1045: x35+x59-y35_59 <=1 
C1046: x35+x60-y35_60 <=1 
C1047: x35+x61-y35_61 <=1 
C1048: x35+x63-y35_63 <=1 
C1049: x36+x38-y36_38 <=1 
C1050: x36+x39 <=1 
C1051: x36+x40 <=1 
C1052: x36+x44-y36_44 <=1 
C1053: x36+x45-y36_45 <=1 
C1054: x36+x46 <=1 
C1055: x36+x48-y36_48 <=1 
C1056: x36+x49 <=1 
C1057: x36+x51 <=1 
C1058: x36+x53-y36_53 <=1 
C1059: x36+x54 <=1 
C1060: x36+x57 <=1 
C1061: x36+x58 <=1 
C1062: x36+x59-y36_59 <=1 
C1063: x36+x61-y36_61 <=1 
C1064: x36+x62-y36_62 <=1 
C1065: x36+x63-y36_63 <=1 
C1066: x37+x38-y37_38 <=1 
C1067: x37+x40 <=1 
C1068: x37+x44-y37_44 <=1 
C1069: x37+x46 <=1 
C1070: x37+x47 <=1 
C1071: x37+x48 <=1 
C1072: x37+x50 <=1 
C1073: x37+x51 <=1 
C1074: x37+x54 <=1 
C1075: x37+x55 <=1 
C1076: x37+x60 <=1 
C1077: x37+x61-y37_61 <=1 
C1078: x38+x40 <=1 
C1079: x38+x41-y38_41 <=1 
C1080: x38+x42-y38_42 <=1 
C1081: x38+x44-y38_44 <=1 
C1082: x38+x45-y38_45 <=1 
C1083: x38+x46-y38_46 <=1 
C1084: x38+x47 <=1 
C1085: x38+x48 <=1 
C1086: x38+x49 <=1 
C1087: x38+x51 <=1 
C1088: x38+x53-y38_53 <=1 
C1089: x38+x55-y38_55 <=1 
C1090: x38+x56-y38_56 <=1 
C1091: x38+x58-y38_58 <=1 
C1092: x38+x60 <=1 
C1093: x38+x63-y38_63 <=1 
C1094: x38+x64-y38_64 <=1 
C1095: x39+x41-y39_41 <=1 
C1096: x39+x43 <=1 
C1097: x39+x44-y39_44 <=1 
C1098: x39+x48-y39_48 <=1 
C1099: x39+x49-y39_49 <=1 
C1100: x39+x51-y39_51 <=1 
C1101: x39+x52 <=1 
C1102: x39+x55 <=1 
C1103: x39+x56-y39_56 <=1 
C1104: x39+x57-y39_57 <=1 
C1105: x39+x59 <=1 
C1106: x39+x61 <=1 
C1107: x39+x62 <=1 
C1108: x40+x43 <=1 
C1109: x40+x45 <=1 
C1110: x40+x46 <=1 
C1111: x40+x50-y40_50 <=1 
C1112: x40+x51 <=1 
C1113: x40+x53-y40_53 <=1 
C1114: x40+x55-y40_55 <=1 
C1115: x40+x56 <=1 
C1116: x40+x57-y40_57 <=1 
C1117: x40+x58-y40_58 <=1 
C1118: x40+x59 <=1 
C1119: x40+x60 <=1 
C1120: x40+x61 <=1 
C1121: x40+x62-y40_62 <=1 
C1122: x40+x63 <=1 
C1123: x40+x64 <=1 
C1124: x41+x42 <=1 
C1125: x41+x44 <=1 
C1126: x41+x47 <=1 
C1127: x41+x48 <=1 
C1128: x41+x49-y41_49 <=1 
C1129: x41+x51 <=1 
C1130: x41+x54 <=1 
C1131: x41+x57 <=1 
C1132: x41+x58-y41_58 <=1 
C1133: x41+x59 <=1 
C1134: x41+x60 <=1 
C1135: x41+x61 <=1 
C1136: x41+x63-y41_63 <=1 
C1137: x41+x64 <=1 
C1138: x42+x44 <=1 
C1139: x42+x48 <=1 
C1140: x42+x50-y42_50 <=1 
C1141: x42+x51-y42_51 <=1 
C1142: x42+x53-y42_53 <=1 
C1143: x42+x54 <=1 
C1144: x42+x55 <=1 
C1145: x42+x57 <=1 
C1146: x42+x58-y42_58 <=1 
C1147: x42+x59 <=1 
C1148: x42+x60 <=1 
C1149: x42+x62 <=1 
C1150: x42+x63 <=1 
C1151: x42+x64-y42_64 <=1 
C1152: x42+x65-y42_65 <=1 
C1153: x43+x45 <=1 
C1154: x43+x46 <=1 
C1155: x43+x49 <=1 
C1156: x43+x53-y43_53 <=1 
C1157: x43+x54-y43_54 <=1 
C1158: x43+x55-y43_55 <=1 
C1159: x43+x57-y43_57 <=1 
C1160: x43+x58 <=1 
C1161: x43+x64 <=1 
C1162: x44+x45 <=1 
C1163: x44+x46 <=1 
C1164: x44+x49-y44_49 <=1 
C1165: x44+x50 <=1 
C1166: x44+x51-y44_51 <=1 
C1167: x44+x52-y44_52 <=1 
C1168: x44+x53 <=1 
C1169: x44+x59-y44_59 <=1 
C1170: x44+x62-y44_62 <=1 
C1171: x44+x65-y44_65 <=1 
C1172: x45+x46 <=1 
C1173: x45+x47-y45_47 <=1 
C1174: x45+x48-y45_48 <=1 
C1175: x45+x49 <=1 
C1176: x45+x50 <=1 
C1177: x45+x51-y45_51 <=1 
C1178: x45+x53-y45_53 <=1 
C1179: x45+x54 <=1 
C1180: x45+x55-y45_55 <=1 
C1181: x45+x56-y45_56 <=1 
C1182: x45+x57 <=1 
C1183: x45+x59-y45_59 <=1 
C1184: x45+x62 <=1 
C1185: x45+x64-y45_64 <=1 
C1186: x45+x65-y45_65 <=1 
C1187: x46+x47-y46_47 <=1 
C1188: x46+x49-y46_49 <=1 
C1189: x46+x50-y46_50 <=1 
C1190: x46+x52-y46_52 <=1 
C1191: x46+x53-y46_53 <=1 
C1192: x46+x54-y46_54 <=1 
C1193: x46+x55-y46_55 <=1 
C1194: x46+x57 <=1 
C1195: x46+x58-y46_58 <=1 
C1196: x46+x62 <=1 
C1197: x46+x65 <=1 
C1198: x47+x48 <=1 
C1199: x47+x49 <=1 
C1200: x47+x50-y47_50 <=1 
C1201: x47+x52-y47_52 <=1 
C1202: x47+x53 <=1 
C1203: x47+x55 <=1 
C1204: x47+x56 <=1 
C1205: x47+x57-y47_57 <=1 
C1206: x47+x58-y47_58 <=1 
C1207: x47+x59 <=1 
C1208: x47+x60-y47_60 <=1 
C1209: x47+x61 <=1 
C1210: x47+x62 <=1 
C1211: x47+x63-y47_63 <=1 
C1212: x47+x64-y47_64 <=1 
C1213: x48+x52-y48_52 <=1 
C1214: x48+x53-y48_53 <=1 
C1215: x48+x54 <=1 
C1216: x48+x55-y48_55 <=1 
C1217: x48+x58-y48_58 <=1 
C1218: x48+x60 <=1 
C1219: x48+x61-y48_61 <=1 
C1220: x48+x62 <=1 
C1221: x48+x64-y48_64 <=1 
C1222: x48+x65 <=1 
C1223: x49+x50 <=1 
C1224: x49+x51 <=1 
C1225: x49+x53-y49_53 <=1 
C1226: x49+x55 <=1 
C1227: x49+x56-y49_56 <=1 
C1228: x49+x57 <=1 
C1229: x49+x59-y49_59 <=1 
C1230: x49+x60-y49_60 <=1 
C1231: x49+x61 <=1 
C1232: x49+x62 <=1 
C1233: x49+x63-y49_63 <=1 
C1234: x49+x64-y49_64 <=1 
C1235: x50+x53 <=1 
C1236: x50+x54-y50_54 <=1 
C1237: x50+x55-y50_55 <=1 
C1238: x50+x56-y50_56 <=1 
C1239: x50+x59-y50_59 <=1 
C1240: x50+x60 <=1 
C1241: x50+x61-y50_61 <=1 
C1242: x50+x63-y50_63 <=1 
C1243: x51+x52 <=1 
C1244: x51+x54 <=1 
C1245: x51+x57 <=1 
C1246: x51+x58 <=1 
C1247: x51+x60 <=1 
C1248: x51+x61 <=1 
C1249: x51+x62 <=1 
C1250: x51+x64-y51_64 <=1 
C1251: x52+x53-y52_53 <=1 
C1252: x52+x54 <=1 
C1253: x52+x58-y52_58 <=1 
C1254: x52+x59-y52_59 <=1 
C1255: x52+x60 <=1 
C1256: x52+x62-y52_62 <=1 
C1257: x52+x63 <=1 
C1258: x53+x54-y53_54 <=1 
C1259: x53+x55-y53_55 <=1 
C1260: x53+x56-y53_56 <=1 
C1261: x53+x59 <=1 
C1262: x53+x60 <=1 
C1263: x53+x61-y53_61 <=1 
C1264: x53+x62 <=1 
C1265: x53+x64 <=1 
C1266: x53+x65-y53_65 <=1 
C1267: x54+x55-y54_55 <=1 
C1268: x54+x56 <=1 
C1269: x54+x57 <=1 
C1270: x54+x61 <=1 
C1271: x54+x62 <=1 
C1272: x54+x63 <=1 
C1273: x54+x65-y54_65 <=1 
C1274: x55+x56-y55_56 <=1 
C1275: x55+x58 <=1 
C1276: x55+x63-y55_63 <=1 
C1277: x55+x64-y55_64 <=1 
C1278: x55+x65-y55_65 <=1 
C1279: x56+x57 <=1 
C1280: x56+x58 <=1 
C1281: x56+x59 <=1 
C1282: x56+x60 <=1 
C1283: x56+x62-y56_62 <=1 
C1284: x56+x63-y56_63 <=1 
C1285: x56+x65-y56_65 <=1 
C1286: x57+x59-y57_59 <=1 
C1287: x57+x60 <=1 
C1288: x57+x61 <=1 
C1289: x57+x65-y57_65 <=1 
C1290: x58+x59-y58_59 <=1 
C1291: x58+x60 <=1 
C1292: x58+x62 <=1 
C1293: x58+x63 <=1 
C1294: x58+x65 <=1 
C1295: x59+x60-y59_60 <=1 
C1296: x59+x61-y59_61 <=1 
C1297: x60+x61-y60_61 <=1 
C1298: x60+x64 <=1 
C1299: x60+x65 <=1 
C1300: x61+x63-y61_63 <=1 
C1301: x61+x65-y61_65 <=1 
C1302: x62+x64-y62_64 <=1 
C1303: x63+x65 <=1 

binary
x0
x1
x2
x3
x4
x5
x6
x7
x8
x9
x10
x11
x12
x13
x14
x15
x16
x17
x18
x19
x20
x21
x22
x23
x24
x25
x26
x27
x28
x29
x30
x31
x32
x33
x34
x35
x36
x37
x38
x39
x40
x41
x42
x43
x44
x45
x46
x47
x48
x49
x50
x51
x52
x53
x54
x55
x56
x57
x58
x59
x60
x61
x62
x63
x64
x65
