problem_generation/data/GISP/train/er_n=66_m=1303_p=0.60_SET2_setparam=100.00_alpha=0.50_344.sol
objective value:                                 1276
x14                                                 1 	(obj:100)
x32                                                 1 	(obj:100)
x35                                                 1 	(obj:100)
x36                                                 1 	(obj:100)
x38                                                 1 	(obj:100)
x50                                                 1 	(obj:100)
x52                                                 1 	(obj:100)
x55                                                 1 	(obj:100)
x59                                                 1 	(obj:100)
x61                                                 1 	(obj:100)
x62                                                 1 	(obj:100)
x64                                                 1 	(obj:100)
x65                                                 1 	(obj:100)
y36_62                                              1 	(obj:-1)
y32_55                                              1 	(obj:-1)
y32_64                                              1 	(obj:-1)
y55_65                                              1 	(obj:-1)
y36_61                                              1 	(obj:-1)
y62_64                                              1 	(obj:-1)
y35_55                                              1 	(obj:-1)
y36_38                                              1 	(obj:-1)
y35_59                                              1 	(obj:-1)
y32_35                                              1 	(obj:-1)
y50_61                                              1 	(obj:-1)
y38_55                                              1 	(obj:-1)
y38_64                                              1 	(obj:-1)
y52_59                                              1 	(obj:-1)
y14_50                                              1 	(obj:-1)
y55_64                                              1 	(obj:-1)
y14_35                                              1 	(obj:-1)
y36_59                                              1 	(obj:-1)
y59_61                                              1 	(obj:-1)
y61_65                                              1 	(obj:-1)
y35_61                                              1 	(obj:-1)
y50_55                                              1 	(obj:-1)
y50_59                                              1 	(obj:-1)
y52_62                                              1 	(obj:-1)
